
******************************************************************************
This program contains Ipopt, a library for large-scale nonlinear optimization.
 Ipopt is released as open source code under the Eclipse Public License (EPL).
         For more information visit http://projects.coin-or.org/Ipopt
******************************************************************************

This is Ipopt version 3.12.6, running with linear solver ma57.

Number of nonzeros in equality constraint Jacobian...:        0
Number of nonzeros in inequality constraint Jacobian.:        0
Number of nonzeros in Lagrangian Hessian.............:  3252525

Total number of variables............................:     2550
                     variables with only lower bounds:        0
                variables with lower and upper bounds:        0
                     variables with only upper bounds:        0
Total number of equality constraints.................:        0
Total number of inequality constraints...............:        0
        inequality constraints with only lower bounds:        0
   inequality constraints with lower and upper bounds:        0
        inequality constraints with only upper bounds:        0

iter    objective    inf_pr   inf_du lg(mu)  ||d||  lg(rg) alpha_du alpha_pr  ls
   0  4.0425000e+04 0.00e+00 1.00e+02  -1.0 0.00e+00    -  0.00e+00 0.00e+00   0
   1  4.0383040e+04 0.00e+00 1.01e+02  -1.0 1.01e-02   4.0 1.00e+00 1.00e+00f  1
   2  4.0249617e+04 0.00e+00 1.06e+02  -1.0 3.18e-02   3.5 1.00e+00 1.00e+00f  1
   3  3.9766645e+04 0.00e+00 1.23e+02  -1.0 1.10e-01   3.0 1.00e+00 1.00e+00f  1
   4  3.6716907e+04 0.00e+00 2.25e+02  -1.0 5.85e-01   2.6 1.00e+00 1.00e+00f  1
   5  3.4830419e+04 0.00e+00 2.76e+02  -1.0 2.81e-01   3.0 1.00e+00 1.00e+00f  1
   6  1.9696672e+04 0.00e+00 2.83e+02  -1.0 1.91e+00   2.5 1.00e+00 1.00e+00f  1
   7  1.0215675e+04 0.00e+00 5.94e+02  -1.0 7.89e+00   2.0 1.00e+00 2.50e-01f  3
   8  6.3781341e+03 0.00e+00 2.11e+02  -1.0 4.86e-01   2.5 1.00e+00 1.00e+00f  1
   9  3.7763804e+03 0.00e+00 4.49e+01  -1.0 8.85e-01   2.0 1.00e+00 1.00e+00f  1
iter    objective    inf_pr   inf_du lg(mu)  ||d||  lg(rg) alpha_du alpha_pr  ls
  10  2.5830442e+03 0.00e+00 3.93e+01  -1.0 7.10e-01   1.5 1.00e+00 1.00e+00f  1
  11  1.7141179e+03 0.00e+00 2.88e+01  -1.0 8.64e-01   1.0 1.00e+00 1.00e+00f  1
  12  1.4630740e+03 0.00e+00 1.33e+01  -1.0 3.91e-01   1.5 1.00e+00 1.00e+00f  1
  13  1.1133565e+03 0.00e+00 1.83e+01  -1.0 7.51e-01   1.0 1.00e+00 1.00e+00f  1
  14  1.0080818e+03 0.00e+00 7.83e+00  -1.0 2.81e-01   1.4 1.00e+00 1.00e+00f  1
  15  8.2273511e+02 0.00e+00 1.00e+01  -1.0 6.19e-01   0.9 1.00e+00 1.00e+00f  1
  16  7.6569332e+02 0.00e+00 5.38e+00  -1.0 2.24e-01   1.4 1.00e+00 1.00e+00f  1
  17  6.5101336e+02 0.00e+00 6.27e+00  -1.0 5.29e-01   0.9 1.00e+00 1.00e+00f  1
  18  4.9311492e+02 0.00e+00 1.99e+01  -1.0 9.60e-01   0.4 1.00e+00 1.00e+00f  1
  19  4.8243566e+02 0.00e+00 2.94e+00  -1.0 5.46e-02   1.7 1.00e+00 1.00e+00f  1
iter    objective    inf_pr   inf_du lg(mu)  ||d||  lg(rg) alpha_du alpha_pr  ls
  20  4.6279836e+02 0.00e+00 2.79e+00  -1.0 1.51e-01   1.3 1.00e+00 1.00e+00f  1
  21  4.1629804e+02 0.00e+00 2.74e+00  -1.0 3.92e-01   0.8 1.00e+00 1.00e+00f  1
  22  3.3533855e+02 0.00e+00 1.21e+01  -1.0 8.37e-01   0.3 1.00e+00 1.00e+00f  1
  23  3.3071059e+02 0.00e+00 1.82e+00  -1.0 4.27e-02   1.6 1.00e+00 1.00e+00f  1
  24  3.2075015e+02 0.00e+00 1.76e+00  -1.0 1.22e-01   1.2 1.00e+00 1.00e+00f  1
  25  2.9565784e+02 0.00e+00 1.74e+00  -1.0 3.29e-01   0.7 1.00e+00 1.00e+00f  1
  26  2.4660009e+02 0.00e+00 8.28e+00  -1.0 7.57e-01   0.2 1.00e+00 1.00e+00f  1
  27  2.3093371e+02 0.00e+00 1.24e+00  -1.0 2.71e-01   0.6 1.00e+00 1.00e+00f  1
  28  1.9810556e+02 0.00e+00 5.77e+00  -1.0 6.73e-01   0.1 1.00e+00 1.00e+00f  1
  29  1.8747705e+02 0.00e+00 9.61e-01  -1.0 2.40e-01   0.6 1.00e+00 1.00e+00f  1
iter    objective    inf_pr   inf_du lg(mu)  ||d||  lg(rg) alpha_du alpha_pr  ls
  30  1.6387866e+02 0.00e+00 4.31e+00  -1.7 6.13e-01   0.1 1.00e+00 1.00e+00f  1
  31  1.5613459e+02 0.00e+00 7.74e-01  -1.7 2.20e-01   0.5 1.00e+00 1.00e+00f  1
  32  1.3827001e+02 0.00e+00 3.42e+00  -1.7 5.71e-01   0.0 1.00e+00 1.00e+00f  1
  33  1.3234374e+02 0.00e+00 6.40e-01  -1.7 2.06e-01   0.5 1.00e+00 1.00e+00f  1
  34  1.1830265e+02 0.00e+00 2.84e+00  -1.7 5.42e-01  -0.0 1.00e+00 1.00e+00f  1
  35  1.1360464e+02 0.00e+00 5.38e-01  -1.7 1.95e-01   0.4 1.00e+00 1.00e+00f  1
  36  1.0225467e+02 0.00e+00 2.43e+00  -1.7 5.20e-01  -0.1 1.00e+00 1.00e+00f  1
  37  9.8431088e+01 0.00e+00 4.59e-01  -1.7 1.88e-01   0.4 1.00e+00 1.00e+00f  1
  38  8.9056963e+01 0.00e+00 2.14e+00  -1.7 5.04e-01  -0.1 1.00e+00 1.00e+00f  1
  39  8.5881658e+01 0.00e+00 3.96e-01  -1.7 1.83e-01   0.3 1.00e+00 1.00e+00f  1
iter    objective    inf_pr   inf_du lg(mu)  ||d||  lg(rg) alpha_du alpha_pr  ls
  40  7.8008110e+01 0.00e+00 1.92e+00  -1.7 4.93e-01  -0.2 1.00e+00 1.00e+00f  1
  41  7.5329237e+01 0.00e+00 3.44e-01  -1.7 1.79e-01   0.3 1.00e+00 1.00e+00f  1
  42  6.8627190e+01 0.00e+00 1.76e+00  -1.7 4.85e-01  -0.2 1.00e+00 1.00e+00f  1
  43  6.6338625e+01 0.00e+00 3.01e-01  -1.7 1.76e-01   0.2 1.00e+00 1.00e+00f  1
  44  6.0572309e+01 0.00e+00 1.63e+00  -1.7 4.80e-01  -0.3 1.00e+00 1.00e+00f  1
  45  5.8597393e+01 0.00e+00 2.65e-01  -1.7 1.74e-01   0.2 1.00e+00 1.00e+00f  1
  46  5.3592954e+01 0.00e+00 1.52e+00  -1.7 4.76e-01  -0.3 1.00e+00 1.00e+00f  1
  47  5.1874748e+01 0.00e+00 2.34e-01  -1.7 1.73e-01   0.1 1.00e+00 1.00e+00f  1
  48  4.7500790e+01 0.00e+00 1.44e+00  -1.7 4.75e-01  -0.4 1.00e+00 1.00e+00f  1
  49  4.5995982e+01 0.00e+00 2.08e-01  -1.7 1.73e-01   0.1 1.00e+00 1.00e+00f  1
iter    objective    inf_pr   inf_du lg(mu)  ||d||  lg(rg) alpha_du alpha_pr  ls
  50  4.2151052e+01 0.00e+00 1.37e+00  -1.7 4.74e-01  -0.4 1.00e+00 1.00e+00f  1
  51  4.0826009e+01 0.00e+00 1.85e-01  -1.7 1.73e-01   0.0 1.00e+00 1.00e+00f  1
  52  3.7430297e+01 0.00e+00 1.31e+00  -2.5 4.75e-01  -0.5 1.00e+00 1.00e+00f  1
  53  3.6258421e+01 0.00e+00 1.65e-01  -2.5 1.73e-01  -0.0 1.00e+00 1.00e+00f  1
  54  3.3248091e+01 0.00e+00 1.26e+00  -2.5 4.77e-01  -0.5 1.00e+00 1.00e+00f  1
  55  3.2208010e+01 0.00e+00 1.47e-01  -2.5 1.74e-01  -0.1 1.00e+00 1.00e+00f  1
  56  2.9531242e+01 0.00e+00 1.22e+00  -2.5 4.79e-01  -0.6 1.00e+00 1.00e+00f  1
  57  2.9406208e+01 0.00e+00 1.30e-01  -2.5 2.25e-02   0.8 1.00e+00 1.00e+00f  1
  58  2.2753127e+01 0.00e+00 4.45e+01  -2.5 5.85e+00    -  1.00e+00 5.00e-01f  2
  59  1.7570780e+01 0.00e+00 6.98e-01  -2.5 8.61e-03   2.1 1.00e+00 1.00e+00f  1
iter    objective    inf_pr   inf_du lg(mu)  ||d||  lg(rg) alpha_du alpha_pr  ls
  60  1.7558187e+01 0.00e+00 8.04e-02  -2.5 1.96e-03   1.6 1.00e+00 1.00e+00f  1
  61  1.7539247e+01 0.00e+00 8.02e-02  -2.5 5.86e-03   1.1 1.00e+00 1.00e+00f  1
  62  1.4027390e+01 0.00e+00 4.25e+01  -2.5 6.27e+00    -  1.00e+00 5.00e-01f  2
  63  1.0043438e+01 0.00e+00 1.11e-01  -2.5 7.42e-03   1.6 1.00e+00 1.00e+00f  1
  64  1.0035436e+01 0.00e+00 4.92e-02  -2.5 4.04e-03   1.1 1.00e+00 1.00e+00f  1
  65  8.2935916e+00 0.00e+00 3.93e+01  -2.5 6.58e+00    -  1.00e+00 5.00e-01f  2
  66  5.4596000e+00 0.00e+00 9.23e-02  -2.5 6.14e-03   1.5 1.00e+00 1.00e+00f  1
  67  5.4563509e+00 0.00e+00 3.00e-02  -2.5 2.78e-03   1.0 1.00e+00 1.00e+00f  1
  68  4.6143630e+00 0.00e+00 3.46e+01  -2.5 6.70e+00    -  1.00e+00 5.00e-01f  2
  69  2.7885411e+00 0.00e+00 7.33e-02  -2.5 4.88e-03   1.5 1.00e+00 1.00e+00f  1
iter    objective    inf_pr   inf_du lg(mu)  ||d||  lg(rg) alpha_du alpha_pr  ls
  70  2.7872547e+00 0.00e+00 1.81e-02  -2.5 1.89e-03   1.0 1.00e+00 1.00e+00f  1
  71  2.3520081e+00 0.00e+00 2.86e+01  -3.8 6.58e+00    -  1.00e+00 5.00e-01f  2
  72  1.3210476e+00 0.00e+00 4.50e-02  -3.8 3.69e-03   1.4 1.00e+00 1.00e+00f  1
  73  1.3205546e+00 0.00e+00 1.08e-02  -3.8 1.27e-03   0.9 1.00e+00 1.00e+00f  1
  74  1.0618109e+00 0.00e+00 2.17e+01  -3.8 6.13e+00    -  1.00e+00 5.00e-01f  2
  75  5.7267358e-01 0.00e+00 1.98e-02  -3.8 2.59e-03   1.4 1.00e+00 1.00e+00f  1
  76  5.7249196e-01 0.00e+00 6.37e-03  -3.8 8.38e-04   0.9 1.00e+00 1.00e+00f  1
  77  4.0979223e-01 0.00e+00 1.47e+01  -3.8 5.35e+00    -  1.00e+00 5.00e-01f  2
  78  2.2450655e-01 0.00e+00 1.21e-02  -3.8 1.64e-03   1.3 1.00e+00 1.00e+00f  1
  79  2.2444265e-01 0.00e+00 3.66e-03  -3.8 5.42e-04   0.8 1.00e+00 1.00e+00f  1
iter    objective    inf_pr   inf_du lg(mu)  ||d||  lg(rg) alpha_du alpha_pr  ls
  80  1.3220561e-01 0.00e+00 8.63e+00  -3.8 4.30e+00    -  1.00e+00 5.00e-01f  2
  81  7.9119413e-02 0.00e+00 7.25e-03  -3.8 9.17e-04   1.3 1.00e+00 1.00e+00f  1
  82  7.9098047e-02 0.00e+00 2.05e-03  -3.8 3.42e-04   0.8 1.00e+00 1.00e+00f  1
  83  3.6194189e-02 0.00e+00 4.26e+00  -3.8 3.13e+00    -  1.00e+00 5.00e-01f  2
  84  2.5171291e-02 0.00e+00 4.26e-03  -3.8 4.37e-04   1.2 1.00e+00 1.00e+00f  1
  85  2.5164506e-02 0.00e+00 1.12e-03  -3.8 2.09e-04   0.7 1.00e+00 1.00e+00f  1
  86  8.9858599e-03 0.00e+00 1.75e+00  -5.7 2.06e+00    -  1.00e+00 5.00e-01f  2
  87  7.3397537e-03 0.00e+00 5.90e-04  -5.7 3.36e-04   0.3 1.00e+00 1.00e+00f  1
  88  2.9024306e-03 0.00e+00 2.44e+00  -5.7 1.24e+00    -  1.00e+00 1.00e+00f  1
  89  2.4355477e-05 0.00e+00 4.39e-04  -5.7 2.39e-04   0.7 1.00e+00 1.00e+00f  1
iter    objective    inf_pr   inf_du lg(mu)  ||d||  lg(rg) alpha_du alpha_pr  ls
  90  2.4339515e-05 0.00e+00 4.17e-05  -5.7 2.64e-05   0.2 1.00e+00 1.00e+00f  1
  91  7.3944037e-08 0.00e+00 1.56e-02  -5.7 1.01e-01    -  1.00e+00 1.00e+00f  1
  92  5.1751408e-10 0.00e+00 7.69e-07  -5.7 1.53e-06  -0.3 1.00e+00 1.00e+00f  1
  93  6.4163093e-17 0.00e+00 5.80e-07  -8.6 6.16e-04    -  1.00e+00 1.00e+00f  1
  94  2.5243549e-28 0.00e+00 1.45e-12  -8.6 2.31e-08    -  1.00e+00 1.00e+00f  1

Number of Iterations....: 94

                                   (scaled)                 (unscaled)
Objective...............:   1.2879361717894070e-28    2.5243548967072378e-28
Dual infeasibility......:   1.4500872158369388e-12    2.8421709430403999e-12
Constraint violation....:   0.0000000000000000e+00    0.0000000000000000e+00
Complementarity.........:   0.0000000000000000e+00    0.0000000000000000e+00
Overall NLP error.......:   1.4500872158369388e-12    2.8421709430403999e-12


Number of objective function evaluations             = 151
Number of objective gradient evaluations             = 95
Number of equality constraint evaluations            = 0
Number of inequality constraint evaluations          = 0
Number of equality constraint Jacobian evaluations   = 0
Number of inequality constraint Jacobian evaluations = 0
Number of Lagrangian Hessian evaluations             = 94
Total CPU secs in IPOPT (w/o function evaluations)   =    208.483
Total CPU secs in NLP function evaluations           =     39.010

EXIT: Optimal Solution Found.

 ** SUBROUTINE CUTEST_csetup: Warning. The problem has no general constraints. 
 ** Other tools may be preferable ** 

************************ CUTEst statistics ************************


 Package used            :  IPOPT
 Problem                 :  EIGENALS  
 # variables             =            2550
 # constraints           =               0
 # objective functions   =        0.2470000E+03
 # objective gradients   =        0.9600000E+02
 # objective Hessians    =        0.9500000E+02
 # Hessian-vector prdct  =        0.0000000E+00
 # constraints functions =        0.0000000E+00
 # constraints gradients =        0.0000000E+00
 # constraints Hessians  =        0.0000000E+00
 Exit code               =               0
 Final f                 =   0.2524355E-27
 Set up time             =            0.87 seconds
 Solve time              =          402.34 seconds


******************************************************************

System Time =     132.6809997559 s.
